SAT
1 -99 65 -4 54 -38 -57 51 -67 43 -86 -26 -13 42 -27 71 -84 94 50 28 -9 22 -15 49 -98 -45 59 -100 62 -85 -3 -77 78 82 44 25 30 -81 20 18 -29 -87 52 37 61 -10 63 21 53 95 23 14 32 -92 46 -16 69 72 75 70 6 -88 -89 -56 -5 -40 47 66 -93 -79 -7 97 58 -48 31 -76 73 74 17 -64 -34 -24 36 -91 -35 -55 33 -83 -2 -90 39 68 19 80 60 96 -12 -41 -8 11 0
